!
!   GAMESS Calculation input file
!   molecula de prueba
!
 $CONTRL SCFTYP=RHF MAXIT=200 RUNTYP=OPTIMIZE
         COORD=UNIQUE MULT=1 
         ICHARG=0  
         DFTTYP=B3LYP
         MOLPLT=.FALSE. PLTORB=.FALSE.  $END
 $SYSTEM TIMLIM=2879 MWORDS=250  $END

 $FORCE METHOD=SEMINUM NVIB=2 $END 
 $STATPT OPTTOL=0.0005 NSTEP=999 $END
 $STATPT IHREP=0 HSSEND=.TRUE.  $END

 $DFT    METHOD=GRID  NLEB=590  $END

 $BASIS  GBASIS=N31 NGAUSS=6
         NDFUNC=1   NPFUNC=0  $END

 $SCF    DIRSCF=.T. $END
 $GUESS  GUESS=HUCKEL  $END

 $DATA
   molecula de prueba
  C1
C     6.0    -0.89199     0.09034     0.08353
C     6.0     0.16008    -0.93487    -0.14411
O     8.0    -0.66376     1.28452     0.18983
C     6.0     1.45553    -0.59970    -0.15383
H     1.0    -1.91714    -0.31440     0.15166
H     1.0    -0.17085    -1.95738    -0.29562
H     1.0     1.77928     0.42807     0.00305
H     1.0     2.22716    -1.34618    -0.31890
 $END


! Customizations after this line are persisted when using Do More Calculations
